(set-logic HORN)
(declare-datatypes ((Nat_0 0)) (((Z_0 ) (S_0 (unS_0 Nat_0)))))
(declare-fun diseqNat_0 (Nat_0 Nat_0) Bool)
(declare-fun unS_1 (Nat_0 Nat_0) Bool)
(declare-fun isZ_0 (Nat_0) Bool)
(declare-fun isS_0 (Nat_0) Bool)
(assert (forall ((x_49 Nat_0) (x_48 Nat_0))
	(=> (= x_49 (S_0 x_48))
	    (unS_1 x_48 x_49))))
(assert (isZ_0 Z_0))
(assert (forall ((x_50 Nat_0))
	(isS_0 (S_0 x_50))))
(assert (forall ((x_51 Nat_0))
	(diseqNat_0 Z_0 (S_0 x_51))))
(assert (forall ((x_52 Nat_0))
	(diseqNat_0 (S_0 x_52) Z_0)))
(assert (forall ((x_53 Nat_0) (x_54 Nat_0))
	(=> (diseqNat_0 x_53 x_54)
	    (diseqNat_0 (S_0 x_53) (S_0 x_54)))))
(declare-fun add_0 (Nat_0 Nat_0 Nat_0) Bool)
(declare-fun minus_0 (Nat_0 Nat_0 Nat_0) Bool)
(declare-fun le_0 (Nat_0 Nat_0) Bool)
(declare-fun ge_0 (Nat_0 Nat_0) Bool)
(declare-fun lt_0 (Nat_0 Nat_0) Bool)
(declare-fun gt_0 (Nat_0 Nat_0) Bool)
(declare-fun mult_0 (Nat_0 Nat_0 Nat_0) Bool)
(declare-fun div_0 (Nat_0 Nat_0 Nat_0) Bool)
(declare-fun mod_0 (Nat_0 Nat_0 Nat_0) Bool)
(assert (forall ((y_0 Nat_0))
	(add_0 y_0 Z_0 y_0)))
(assert (forall ((x_34 Nat_0) (y_0 Nat_0) (r_0 Nat_0))
	(=> (add_0 r_0 x_34 y_0)
	    (add_0 (S_0 r_0) (S_0 x_34) y_0))))
(assert (forall ((y_0 Nat_0))
	(minus_0 Z_0 Z_0 y_0)))
(assert (forall ((x_34 Nat_0) (y_0 Nat_0) (r_0 Nat_0))
	(=> (minus_0 r_0 x_34 y_0)
	    (minus_0 (S_0 r_0) (S_0 x_34) y_0))))
(assert (forall ((y_0 Nat_0))
	(le_0 Z_0 y_0)))
(assert (forall ((x_34 Nat_0) (y_0 Nat_0))
	(=> (le_0 x_34 y_0)
	    (le_0 (S_0 x_34) (S_0 y_0)))))
(assert (forall ((y_0 Nat_0))
	(ge_0 y_0 Z_0)))
(assert (forall ((x_34 Nat_0) (y_0 Nat_0))
	(=> (ge_0 x_34 y_0)
	    (ge_0 (S_0 x_34) (S_0 y_0)))))
(assert (forall ((y_0 Nat_0))
	(lt_0 Z_0 (S_0 y_0))))
(assert (forall ((x_34 Nat_0) (y_0 Nat_0))
	(=> (lt_0 x_34 y_0)
	    (lt_0 (S_0 x_34) (S_0 y_0)))))
(assert (forall ((y_0 Nat_0))
	(gt_0 (S_0 y_0) Z_0)))
(assert (forall ((x_34 Nat_0) (y_0 Nat_0))
	(=> (gt_0 x_34 y_0)
	    (gt_0 (S_0 x_34) (S_0 y_0)))))
(assert (forall ((y_0 Nat_0))
	(mult_0 Z_0 Z_0 y_0)))
(assert (forall ((x_34 Nat_0) (y_0 Nat_0) (r_0 Nat_0) (z_1 Nat_0))
	(=>	(and (mult_0 r_0 x_34 y_0)
			(add_0 z_1 r_0 y_0))
		(mult_0 z_1 (S_0 x_34) y_0))))
(assert (forall ((x_34 Nat_0) (y_0 Nat_0))
	(=> (lt_0 x_34 y_0)
	    (div_0 Z_0 x_34 y_0))))
(assert (forall ((x_34 Nat_0) (y_0 Nat_0) (r_0 Nat_0) (z_1 Nat_0))
	(=>	(and (ge_0 x_34 y_0)
			(minus_0 z_1 x_34 y_0)
			(div_0 r_0 z_1 y_0))
		(div_0 (S_0 r_0) x_34 y_0))))
(assert (forall ((x_34 Nat_0) (y_0 Nat_0))
	(=> (lt_0 x_34 y_0)
	    (mod_0 x_34 x_34 y_0))))
(assert (forall ((x_34 Nat_0) (y_0 Nat_0) (r_0 Nat_0) (z_1 Nat_0))
	(=>	(and (ge_0 x_34 y_0)
			(minus_0 z_1 x_34 y_0)
			(mod_0 r_0 z_1 y_0))
		(mod_0 r_0 x_34 y_0))))
(declare-fun and_0 (Bool Bool Bool) Bool)
(declare-fun or_0 (Bool Bool Bool) Bool)
(declare-fun hence_0 (Bool Bool Bool) Bool)
(declare-fun not_0 (Bool Bool) Bool)
(assert (and_0 false false false))
(assert (and_0 false true false))
(assert (and_0 false false true))
(assert (and_0 true true true))
(assert (or_0 false false false))
(assert (or_0 true true false))
(assert (or_0 true false true))
(assert (or_0 true true true))
(assert (hence_0 true false false))
(assert (hence_0 false true false))
(assert (hence_0 true false true))
(assert (hence_0 true true true))
(assert (not_0 true false))
(assert (not_0 false true))
(declare-fun id_0 (Nat_0 Nat_0) Bool)
(declare-fun id_1 (Nat_0 Bool Nat_0) Bool)
(declare-fun id_2 (Nat_0 Nat_0 Bool Nat_0) Bool)
(declare-fun id_3 (Nat_0 Nat_0) Bool)
(declare-fun id_4 (Nat_0 Bool Nat_0) Bool)
(declare-fun id_5 (Nat_0 Nat_0 Bool Nat_0) Bool)
(declare-fun main_0 (Bool) Bool)
(declare-fun main_1 (Bool Bool) Bool)
(assert (forall ((x_0 Nat_0) (x_1 Nat_0))
	(=>	(and (id_1 x_0 true x_1)
			(= x_0 Z_0))
		(id_0 x_0 x_1))))
(assert (forall ((x_0 Nat_0) (x_1 Nat_0))
	(=>	(and (id_1 x_0 false x_1)
			(diseqNat_0 x_0 Z_0))
		(id_0 x_0 x_1))))
(assert (forall ((x_2 Nat_0) (x_3 Nat_0) (x_4 Nat_0) (x_35 Nat_0) (x_36 Nat_0) (x_37 Nat_0))
	(=>	(and (id_3 x_35 x_4)
			(id_2 x_2 x_36 true x_3)
			(gt_0 x_37 (S_0 (S_0 Z_0)))
			(minus_0 x_35 x_2 (S_0 Z_0))
			(add_0 x_36 x_4 (S_0 Z_0))
			(add_0 x_37 x_4 (S_0 Z_0)))
		(id_1 x_2 false x_3))))
(assert (forall ((x_2 Nat_0) (x_3 Nat_0) (x_4 Nat_0) (x_38 Nat_0) (x_39 Nat_0) (x_40 Nat_0))
	(=>	(and (id_3 x_38 x_4)
			(id_2 x_2 x_39 false x_3)
			(le_0 x_40 (S_0 (S_0 Z_0)))
			(minus_0 x_38 x_2 (S_0 Z_0))
			(add_0 x_39 x_4 (S_0 Z_0))
			(add_0 x_40 x_4 (S_0 Z_0)))
		(id_1 x_2 false x_3))))
(assert (forall ((x_5 Nat_0) (x_6 Nat_0))
	(=> (= x_6 Z_0)
	    (id_1 x_5 true x_6))))
(assert (forall ((x_7 Nat_0) (x_8 Nat_0) (x_9 Nat_0))
	(=> (= x_9 x_8)
	    (id_2 x_7 x_8 false x_9))))
(assert (forall ((x_10 Nat_0) (x_11 Nat_0) (x_12 Nat_0))
	(=> (= x_12 (S_0 (S_0 Z_0)))
	    (id_2 x_10 x_11 true x_12))))
(assert (forall ((x_13 Nat_0) (x_14 Nat_0))
	(=>	(and (id_4 x_13 true x_14)
			(= x_13 Z_0))
		(id_3 x_13 x_14))))
(assert (forall ((x_13 Nat_0) (x_14 Nat_0))
	(=>	(and (id_4 x_13 false x_14)
			(diseqNat_0 x_13 Z_0))
		(id_3 x_13 x_14))))
(assert (forall ((x_15 Nat_0) (x_16 Nat_0) (x_17 Nat_0) (x_41 Nat_0) (x_42 Nat_0) (x_43 Nat_0))
	(=>	(and (id_0 x_41 x_17)
			(id_5 x_15 x_42 true x_16)
			(gt_0 x_43 (S_0 (S_0 Z_0)))
			(minus_0 x_41 x_15 (S_0 Z_0))
			(add_0 x_42 x_17 (S_0 Z_0))
			(add_0 x_43 x_17 (S_0 Z_0)))
		(id_4 x_15 false x_16))))
(assert (forall ((x_15 Nat_0) (x_16 Nat_0) (x_17 Nat_0) (x_44 Nat_0) (x_45 Nat_0) (x_46 Nat_0))
	(=>	(and (id_0 x_44 x_17)
			(id_5 x_15 x_45 false x_16)
			(le_0 x_46 (S_0 (S_0 Z_0)))
			(minus_0 x_44 x_15 (S_0 Z_0))
			(add_0 x_45 x_17 (S_0 Z_0))
			(add_0 x_46 x_17 (S_0 Z_0)))
		(id_4 x_15 false x_16))))
(assert (forall ((x_18 Nat_0) (x_19 Nat_0))
	(=> (= x_19 Z_0)
	    (id_4 x_18 true x_19))))
(assert (forall ((x_20 Nat_0) (x_21 Nat_0) (x_22 Nat_0))
	(=> (= x_22 x_21)
	    (id_5 x_20 x_21 false x_22))))
(assert (forall ((x_23 Nat_0) (x_24 Nat_0) (x_25 Nat_0))
	(=> (= x_25 (S_0 (S_0 Z_0)))
	    (id_5 x_23 x_24 true x_25))))
(assert (forall ((x_26 Bool) (x_27 Nat_0) (x_28 Nat_0) (x_32 Bool))
	(=>	(and (id_0 x_28 x_27)
			(main_1 x_32 x_26)
			(= x_27 (S_0 (S_0 (S_0 Z_0))))
			(not_0 x_32 true))
		(main_0 x_26))))
(assert (forall ((x_26 Bool) (x_27 Nat_0) (x_28 Nat_0) (x_33 Bool))
	(=>	(and (id_0 x_28 x_27)
			(main_1 x_33 x_26)
			(diseqNat_0 x_27 (S_0 (S_0 (S_0 Z_0))))
			(not_0 x_33 false))
		(main_0 x_26))))
(assert (forall ((x_29 Bool))
	(=> (= x_29 false)
	    (main_1 false x_29))))
(assert (forall ((x_30 Bool))
	(=> (= x_30 true)
	    (main_1 true x_30))))
(assert (forall ((x_31 Nat_0))
	(=> (main_0 true)
	    false)))
(check-sat)
